(set-option :produce-models true)
(set-logic QF_UF)
(declare-fun p35() Bool)
(declare-fun p40() Bool)
(declare-fun p7() Bool)
(declare-fun p42() Bool)
(declare-fun p45() Bool)
(declare-fun p22() Bool)
(declare-fun p14() Bool)
(declare-fun p32() Bool)
(declare-fun p29() Bool)
(declare-fun p16() Bool)
(declare-fun p41() Bool)
(declare-fun p0() Bool)
(declare-fun p34() Bool)
(declare-fun p15() Bool)
(declare-fun p3() Bool)
(declare-fun p8() Bool)
(declare-fun p48() Bool)
(declare-fun p47() Bool)
(declare-fun p31() Bool)
(declare-fun p13() Bool)
(declare-fun p20() Bool)
(declare-fun p37() Bool)
(declare-fun p18() Bool)
(declare-fun p26() Bool)
(declare-fun p44() Bool)
(declare-fun p4() Bool)
(declare-fun p23() Bool)
(declare-fun p21() Bool)
(declare-fun p1() Bool)
(declare-fun p38() Bool)
(declare-fun p33() Bool)
(declare-fun p19() Bool)
(declare-fun p25() Bool)
(declare-fun p12() Bool)
(declare-fun p10() Bool)
(declare-fun p6() Bool)
(declare-fun p11() Bool)
(declare-fun p36() Bool)
(declare-fun p43() Bool)
(declare-fun p30() Bool)
(declare-fun p5() Bool)
(declare-fun p27() Bool)
(declare-fun p24() Bool)
(declare-fun p2() Bool)
(declare-fun p28() Bool)
(declare-fun p49() Bool)
(declare-fun p17() Bool)
(declare-fun p46() Bool)
(declare-fun p9() Bool)
(declare-fun p39() Bool)
(assert
(and (or p35 p40 p7) (or p42 (not p45) p22) (or (not p35) (not p14) (not p45)) (or p32 p29 (not p16)) (or (not p35) (not p41) p0) (or (not p34) p15 (not p3)) (or (not p16) (not p8) p32) (or (not p48) p32 p47) (or (not p29) (not p31) p29) (or (not p13) p16 (not p14)) (or p20 (not p35) p42) (or (not p37) (not p18) (not p26)) (or (not p47) (not p44) p3) (or (not p32) p22 (not p40)) (or p4 p26 (not p20)) (or (not p37) p23 (not p21)) (or (not p1) (not p16) p38) (or (not p33) p19 (not p25)) (or (not p12) (not p48) (not p33)) (or p33 p35 (not p29)) (or (not p10) (not p13) (not p16)) (or (not p18) (not p23) p6) (or (not p14) p40 (not p10)) (or (not p8) p13 p13) (or (not p4) p34 (not p11)) (or p36 p40 p10) (or p7 (not p26) (not p43)) (or (not p36) (not p15) p10) (or (not p15) p26 p15) (or (not p30) (not p41) p6) (or (not p43) p38 (not p12)) (or (not p41) (not p42) p43) (or (not p14) p16 p42) (or p47 (not p29) p5) (or (not p21) p27 p24) (or p2 p47 (not p22)) (or p28 (not p14) (not p6)) (or p23 (not p21) (not p27)) (or p27 (not p38) p34) (or (not p49) p16 p6) (or p22 p11 p22) (or p35 p14 (not p41)) (or (not p47) (not p43) p1) (or p37 (not p1) p24) (or (not p3) (not p17) (not p12)) (or p36 p47 p28) (or p42 p17 p7) (or p28 p25 p23) (or p21 (not p30) p46) (or (not p1) (not p24) p22) (or (not p44) p15 p13) (or (not p41) (not p43) p38) (or p7 (not p3) p2) (or p21 (not p22) p46) (or (not p0) p18 p31) (or p14 (not p9) p8) (or p48 (not p33) (not p46)) (or (not p4) (not p33) (not p12)) (or (not p17) (not p40) (not p48)) (or (not p46) (not p2) p3) (or p1 (not p42) p48) (or p7 p35 (not p39)) (or (not p29) (not p40) p49) (or (not p28) (not p5) (not p47)) (or p14 p2 (not p11)) (or p7 p5 p32) (or (not p29) p45 (not p42)) (or (not p24) p26 (not p4)) (or (not p44) p7 p0) (or (not p26) p31 (not p23)) (or p35 (not p5) (not p14)) (or p35 (not p39) (not p35)) (or (not p43) p3 (not p18)) (or (not p6) p47 p45) (or p47 p7 p28) (or p47 (not p20) p39) (or p18 p7 p3) (or p7 p17 (not p39)) (or p11 (not p10) (not p7)) (or (not p15) (not p40) (not p37)) (or (not p42) p42 p39) (or p25 p19 p15) (or (not p0) p8 p2) (or (not p47) (not p7) p10) (or (not p9) p43 p14) (or p19 (not p31) p25) (or p10 (not p22) p47) (or (not p27) p26 (not p47)) (or (not p6) p13 p38) (or (not p45) (not p8) p21) (or p14 p6 p42) (or p14 p41 p18) (or (not p10) p38 (not p7)) (or p49 p2 (not p16)) (or p12 p32 (not p11)) (or (not p40) (not p7) (not p35)) (or (not p0) p9 p2) (or (not p32) p32 (not p30)) (or p16 (not p22) (not p29)) (or (not p37) p6 (not p12)) (or (not p3) p8 (not p24)) (or p5 (not p14) p1) (or (not p17) (not p12) p16) (or (not p48) p21 p39) (or p31 (not p21) p17) (or p5 p8 (not p28)) (or (not p2) p25 (not p33)) (or (not p2) (not p34) p4) (or (not p28) (not p45) (not p25)) (or (not p41) p38 p45) (or p17 (not p38) (not p14)) (or (not p43) (not p1) p43) (or p5 (not p1) p14) (or (not p13) (not p22) (not p1)) (or p30 p14 p49) (or p2 p9 (not p0)) (or (not p13) p44 p37) (or (not p7) p10 p38) (or (not p6) p21 p44) (or p24 p1 (not p48)) (or p44 (not p48) (not p18)) (or (not p12) (not p13) p36) (or p0 p28 p48) (or (not p18) (not p12) p10) (or p10 p42 (not p33)) (or (not p2) (not p10) (not p4)) (or p27 (not p18) (not p7)) (or (not p9) p27 (not p37)) (or p26 (not p35) p8) (or p28 p23 (not p31)) (or (not p26) p30 p38) (or p43 (not p26) p21) (or (not p0) (not p46) p2) (or (not p27) p8 (not p22)) (or p43 (not p29) (not p45)) (or p29 (not p14) (not p25)) (or p45 (not p5) (not p45)) (or (not p14) (not p48) p26) (or p20 (not p1) (not p32)) (or (not p21) p28 p8) (or p28 (not p19) (not p7)) (or p16 p40 p40) (or p29 p14 (not p38)) (or p7 (not p36) (not p12)) (or p22 (not p11) p21) (or p35 p46 (not p14)) (or (not p17) (not p49) p27) (or (not p12) p11 p16) (or p32 (not p2) p17) (or p41 p17 (not p13)) (or (not p39) (not p27) (not p38)) (or (not p16) (not p38) (not p37)) (or p43 (not p32) p3) (or p33 p21 p13) (or (not p12) p28 (not p28)) (or p22 p0 (not p18)) (or (not p48) p37 p7) (or (not p37) (not p27) p42) (or (not p46) (not p45) p21) (or (not p14) p48 (not p38)) (or (not p21) (not p12) (not p36)) (or (not p40) (not p23) (not p43)) (or p17 p40 (not p22)) (or p45 (not p49) (not p12)) (or (not p29) p10 (not p12)) (or (not p19) p47 (not p42)) (or p43 p9 (not p44)) (or p3 p44 (not p44)) (or (not p13) p47 p17) (or (not p15) (not p45) p49) (or p43 (not p49) p36) (or p17 p0 (not p10)) (or p35 p27 (not p47)) (or (not p41) (not p31) p22) (or p41 (not p29) p43) (or (not p41) p32 (not p1)) (or p11 p33 (not p15)) (or p35 p46 p9) (or (not p30) p16 p8) (or (not p35) (not p49) (not p49)) (or (not p7) p27 p20) (or p36 p40 p36) (or (not p20) p30 (not p43)) (or (not p24) (not p32) p4) (or (not p24) (not p0) p32) (or p22 p37 p37) (or (not p43) p9 p18) (or p36 p21 (not p33)) (or (not p42) (not p10) p37) (or (not p49) (not p22) (not p36)) (or (not p23) (not p17) (not p33)) (or p23 (not p0) p18) (or (not p37) (not p41) (not p35)) (or (not p40) (not p45) p45) (or p46 (not p27) (not p14)) (or p4 p12 p24) (or (not p23) (not p4) p48) (or p38 (not p37) p37) (or p21 (not p15) p9) (or p27 (not p25) (not p22)) (or p22 (not p28) p44) (or (not p27) (not p24) p22) (or p16 (not p1) p36) (or p27 p36 p13) (or (not p22) p31 (not p31)) (or (not p49) p8 (not p40)) (or p45 (not p45) p44) (or (not p20) p22 (not p40)) (or (not p31) (not p1) p26) (or (not p28) p17 p45))
)
(check-sat)
(get-model)
